15294
1 0 1 0 0 1 0 0 0 0 0 1 0 0 1 0 1 1 0 0 1 0 0 0 1 1 0 0 0 0 
20 11 16 2 20 5 2 24 14 17 5 16 14 20 17 14 14 17 5 11 2 0 5 17 5 20 2 24 5 24 5 25 16 25 20 20 24 24 0 14 0 14 24 16 24 14 0 20 11 14 5 14 14 5 20 20 17 11 11 14 0 5 20 11 11 11 24 0 24 5 16 20 11 17 24 20 24 20 2 24 20 0 20 17 17 17 17 0 20 5 2 24 17 11 17 5 2 2 25 16 16 17 17 25 2 25 17 11 14 14 14 14 2 11 11 25 24 24 24 24 5 16 25 20 16 0 5 24 0 25 0 11 24 5 16 14 17 5 20 17 0 14 20 14 14 25 25 5 2 5 
